6 32 4 10
2 19 10 2 5 4 18 20 11 12 15 2 13 8 4 19 9 9 14 20 14 5 20 5 1 11 4 15 10 1 15 6 
7.46 2.23 6.69 0.92 3.01 6.45 3.77 2.09 4.78 0.05 5.37 6.11 2.22 5.36 4.3 4.27 0.43 2.86 5.83 5.77 2.34 7.29 6.72 7.49 7 4.1 1.63 2.77 6.24 1.85 2.1 0.28 
0.21 1.49 6.67 2.54 3.96 7.74 1.04 5.25 3.71 4.25 5.61 4.88 7.72 4.03 1.81 4.77 5.86 4.56 2.38 3.96 0.83 6.09 2.95 5.5 5.67 2.25 0.05 4.58 4.94 0.96 0.63 7.61 
7.66 2.14 4.73 4.35 3.29 7.98 2.21 0.39 4.91 5.76 1.63 6.93 7.59 5.91 5.95 3.6 1.68 7.61 0.15 7.83 4.21 4.88 1.03 4.53 5.22 7.06 6.99 2.57 6.34 7.56 1.68 4.04 
4.43 0.29 6.58 7.65 6.99 4.34 3.52 0.23 0.96 0.07 2.54 0.78 2.58 3.39 4.36 7.06 0.08 1.09 1.59 5.54 5.1 3.18 3.5 2.78 7.99 4.88 1.25 0.04 6.3 7.41 5.99 2.51 
4 4 4 4 4 4 4 4 4 4 4 4 4 4 4 4 4 4 4 4 4 4 4 4 4 4 4 4 4 4 4 4 
2.43 4.08 2.55 1.51 2.01 7.07 6.79 6.86 0.63 4.76 1.79 0.1 5.8 5.55 4.74 2.23 6.89 6.88 1.13 5.52 4.69 1.4 4.43 5.89 4.87 7.62 3.73 5.03 7.9 2.96 5.8 5.25 
1 1 1 1 1 1 1 1 1 1 1 1 1 1 1 1 1 1 1 1 1 1 1 1 1 1 1 1 1 1 1 1 
1 1 1 1 1 1 1 1 1 1 1 1 1 1 1 1 1 1 1 1 1 1 1 1 1 1 1 1 1 1 1 1 
1 1 1 1 1 1 1 1 1 1 1 1 1 1 1 1 1 1 1 1 1 1 1 1 1 1 1 1 1 1 1 1 
1 1 1 1 1 1 1 1 1 1 1 1 1 1 1 1 1 1 1 1 1 1 1 1 1 1 1 1 1 1 1 1 
1 1 1 1 1 1 1 1 1 1 1 1 1 1 1 1 1 1 1 1 1 1 1 1 1 1 1 1 1 1 1 1 
1 1 1 1 1 1 1 1 1 1 1 1 1 1 1 1 1 1 1 1 1 1 1 1 1 1 1 1 1 1 1 1 
0.01 0.01 0.01 0.01 0.01 0.01 0.01 0.01 0.01 0.01 0.01 0.01 0.01 0.01 0.01 0.01 0.01 0.01 0.01 0.01 0.01 0.01 0.01 0.01 0.01 0.01 0.01 0.01 0.01 0.01 0.01 0.01 
0.02 0.02 0.02 0.02 0.02 0.02 0.02 0.02 0.02 0.02 0.02 0.02 0.02 0.02 0.02 0.02 0.02 0.02 0.02 0.02 0.02 0.02 0.02 0.02 0.02 0.02 0.02 0.02 0.02 0.02 0.02 0.02 
0.03 0.03 0.03 0.03 0.03 0.03 0.03 0.03 0.03 0.03 0.03 0.03 0.03 0.03 0.03 0.03 0.03 0.03 0.03 0.03 0.03 0.03 0.03 0.03 0.03 0.03 0.03 0.03 0.03 0.03 0.03 0.03 
0.04 0.04 0.04 0.04 0.04 0.04 0.04 0.04 0.04 0.04 0.04 0.04 0.04 0.04 0.04 0.04 0.04 0.04 0.04 0.04 0.04 0.04 0.04 0.04 0.04 0.04 0.04 0.04 0.04 0.04 0.04 0.04 
0.05 0.05 0.05 0.05 0.05 0.05 0.05 0.05 0.05 0.05 0.05 0.05 0.05 0.05 0.05 0.05 0.05 0.05 0.05 0.05 0.05 0.05 0.05 0.05 0.05 0.05 0.05 0.05 0.05 0.05 0.05 0.05 
1 1 1 1 1 1 1 1 1 1 1 1 1 1 1 1 1 1 1 1 1 1 1 1 1 1 1 1 1 1 1 1 
